Test: battleship-10-19-sat.cnf
Options: -no-inverting-opt -activity-look-freq=1
WARNING: for repeatability, setting FPU to use double precision
============================[ Problem Statistics ]=============================
|                                                                             |
|  Number of symmetries:           15                                         |
|  Number of invertingSyms:         0                                         |
|  Number of variables:           190                                         |
|  Number of clauses:             955                                         |
|  Parse time:                   0.00 s                                       |
|                                                                             |
============================[ Search Statistics ]==============================
| Conflicts |          ORIGINAL         |          LEARNT          | Progress |
|           |    Vars  Clauses Literals |    Limit  Clauses Lit/Cl |          |
===============================================================================
|       100 |     190      955     3610 |      350      100     70 |  0.003 % |
===============================================================================
restarts              : 2
conflicts             : 111            (27750 /sec)
symconflicts          : 0              (0 /sec)
decisions             : 380            (0.00 % random) (95000 /sec)
propagations          : 6753           (1688250 /sec)
sympropagations       : 3              (750 /sec)
conflict literals     : 7632           (0.13 % deleted)
literals     : 7632           (0.13 % deleted)

HEURISTIC USAGES
random                : 0           
activity w/ lookahead : 379         
activity no lookahead : 0           
original sp           : 0           
sym count             : 0           

Memory used           : 5.00 MB
CPU time              : 0.004 s

SATISFIABLE
